solution status: gap limit reached
objective value:                            39903.281
y#2                                                 1 	(obj:5700)
y#3                                                 1 	(obj:5700)
y#6                                                 1 	(obj:5700)
y#8                                                 1 	(obj:5700)
y#11                                                1 	(obj:5700)
y#12                                                1 	(obj:5700)
y#13                                                1 	(obj:5700)
x#1#12                                              1 	(obj:0.01751)
x#2#13                                              1 	(obj:0.01955)
x#3#6                                               1 	(obj:0.06222)
x#4#8                                               1 	(obj:0.03944)
x#5#2                                               1 	(obj:0.04369)
x#6#6                                               1 	(obj:0.05797)
x#7#6                                               1 	(obj:0.07922)
x#8#12                                              1 	(obj:0.04879)
x#9#11                                              1 	(obj:0.05134)
x#10#2                                              1 	(obj:0.02958)
x#11#6                                              1 	(obj:0.05117)
x#12#13                                             1 	(obj:0.03264)
x#13#6                                              1 	(obj:0.08126)
x#14#11                                             1 	(obj:0.03638)
x#15#6                                              1 	(obj:0.10234)
x#16#11                                             1 	(obj:0.05236)
x#17#12                                             1 	(obj:0.02584)
x#18#8                                              1 	(obj:0.03672)
x#19#3                                              1 	(obj:0.034)
x#20#3                                              1 	(obj:0.0272)
x#21#2                                              1 	(obj:0.05746)
x#22#3                                              1 	(obj:0.03995)
x#23#8                                              1 	(obj:0.03281)
x#24#8                                              1 	(obj:0.01938)
x#25#12                                             1 	(obj:0.02873)
x#26#11                                             1 	(obj:0.03502)
x#27#12                                             1 	(obj:0.02176)
x#28#6                                              1 	(obj:0.04437)
x#29#2                                              1 	(obj:0.07021)
x#30#13                                             1 	(obj:0.12274)
x#31#2                                              1 	(obj:0.02006)
x#32#13                                             1 	(obj:0.04165)
x#33#3                                              1 	(obj:0.0374)
x#34#3                                              1 	(obj:0.02924)
x#35#13                                             1 	(obj:0.06392)
x#36#12                                             1 	(obj:0.02125)
x#37#6                                              1 	(obj:0.06919)
x#38#12                                             1 	(obj:0.01989)
x#39#12                                             1 	(obj:0.0221)
x#40#6                                              1 	(obj:0.04318)
x#41#11                                             1 	(obj:0.02023)
x#42#8                                              1 	(obj:0.02737)
x#43#12                                             1 	(obj:0.03094)
x#44#2                                              1 	(obj:0.02278)
x#45#13                                             1 	(obj:0.04896)
x#46#2                                              1 	(obj:0.03757)
x#47#2                                              1 	(obj:0.08245)
x#48#11                                             1 	(obj:0.01751)
x#49#13                                             1 	(obj:0.01887)
x#50#8                                              1 	(obj:0.0374)
x#51#8                                              1 	(obj:0.02737)
x#52#11                                             1 	(obj:0.04182)
x#53#12                                             1 	(obj:0.02176)
x#54#12                                             1 	(obj:0.04301)
x#55#2                                              1 	(obj:0.03332)
x#56#11                                             1 	(obj:0.01989)
x#57#13                                             1 	(obj:0.017)
x#58#3                                              1 	(obj:0.03944)
x#59#11                                             1 	(obj:0.0204)
x#60#8                                              1 	(obj:0.03502)
x#61#2                                              1 	(obj:0.01309)
x#62#2                                              1 	(obj:0.07565)
x#63#8                                              1 	(obj:0.01309)
x#64#6                                              1 	(obj:0.02431)
x#65#3                                              1 	(obj:0.07701)
x#66#11                                             1 	(obj:0.0306)
x#67#12                                             1 	(obj:0.04063)
x#68#13                                             1 	(obj:0.07769)
x#69#3                                              1 	(obj:0.07089)
x#70#3                                              1 	(obj:0.05457)
x#71#13                                             1 	(obj:0.04131)
x#72#8                                              1 	(obj:0.02516)
x#73#13                                             1 	(obj:0.02771)
x#74#11                                             1 	(obj:0.07174)
x#75#3                                              1 	(obj:0.05083)
x#76#3                                              1 	(obj:0.03451)
x#77#3                                              1 	(obj:0.03264)
x#78#2                                              1 	(obj:0.01309)
x#79#6                                              1 	(obj:0.05848)
x#80#8                                              1 	(obj:0.03536)
